p edge 55 484 41
e 1 2
e 1 3
e 1 4
e 1 5
e 1 6
e 1 7
e 1 8
e 1 9
e 1 10
e 1 11
e 1 12
e 1 13
e 1 14
e 1 15
e 1 16
e 1 17
e 1 18
e 1 23
e 1 24
e 1 26
e 1 27
e 1 28
e 1 29
e 1 34
e 1 38
e 1 40
e 1 41
e 1 45
e 1 48
e 1 50
e 1 55
e 2 13
e 2 14
e 2 15
e 2 16
e 2 21
e 2 33
e 2 36
e 2 38
e 2 41
e 2 42
e 2 48
e 3 13
e 3 14
e 3 15
e 3 17
e 3 18
e 3 21
e 3 23
e 3 24
e 3 27
e 3 32
e 3 36
e 3 37
e 3 47
e 3 49
e 3 51
e 3 53
e 4 13
e 4 14
e 4 15
e 4 16
e 4 17
e 4 19
e 4 20
e 4 22
e 4 23
e 4 25
e 4 28
e 4 33
e 4 35
e 4 37
e 4 39
e 4 46
e 4 47
e 5 13
e 5 14
e 5 15
e 5 16
e 5 18
e 5 20
e 5 21
e 5 23
e 5 24
e 5 25
e 5 26
e 5 27
e 5 28
e 5 29
e 5 34
e 5 42
e 5 43
e 5 44
e 5 45
e 5 52
e 6 13
e 6 17
e 6 18
e 6 19
e 6 20
e 6 22
e 6 25
e 6 26
e 6 28
e 6 30
e 6 34
e 6 49
e 7 13
e 7 14
e 7 16
e 7 19
e 7 29
e 7 31
e 7 48
e 8 13
e 8 14
e 8 15
e 8 16
e 8 18
e 8 20
e 8 23
e 8 43
e 8 44
e 8 46
e 8 49
e 8 53
e 9 13
e 9 14
e 9 15
e 9 16
e 9 18
e 9 20
e 9 21
e 9 24
e 9 29
e 9 33
e 9 39
e 10 13
e 10 14
e 10 15
e 10 17
e 10 19
e 10 20
e 10 22
e 10 24
e 10 31
e 10 33
e 10 39
e 10 40
e 10 44
e 10 45
e 10 49
e 10 54
e 11 17
e 11 22
e 11 28
e 11 44
e 11 47
e 11 55
e 12 13
e 12 14
e 12 15
e 12 16
e 12 17
e 12 18
e 12 19
e 12 20
e 12 22
e 12 23
e 12 27
e 12 29
e 12 35
e 12 40
e 12 41
e 12 45
e 12 54
e 13 14
e 13 15
e 13 16
e 13 17
e 13 18
e 13 19
e 13 20
e 13 21
e 13 22
e 13 23
e 13 24
e 13 25
e 13 26
e 13 27
e 13 28
e 13 31
e 13 32
e 13 34
e 13 35
e 13 36
e 13 37
e 13 39
e 13 41
e 13 43
e 13 45
e 13 47
e 13 48
e 13 51
e 14 15
e 14 16
e 14 17
e 14 18
e 14 19
e 14 20
e 14 21
e 14 23
e 14 25
e 14 27
e 14 29
e 14 30
e 14 31
e 14 33
e 14 36
e 14 37
e 14 38
e 14 42
e 14 50
e 14 51
e 14 52
e 14 53
e 15 16
e 15 17
e 15 19
e 15 20
e 15 21
e 15 22
e 15 24
e 15 25
e 15 26
e 15 27
e 15 28
e 15 29
e 15 30
e 15 31
e 15 32
e 15 34
e 15 36
e 15 38
e 15 39
e 15 41
e 15 42
e 15 43
e 15 44
e 15 46
e 15 47
e 15 48
e 15 49
e 15 51
e 15 53
e 15 54
e 15 55
e 16 17
e 16 18
e 16 19
e 16 20
e 16 21
e 16 22
e 16 24
e 16 25
e 16 26
e 16 27
e 16 28
e 16 29
e 16 30
e 16 31
e 16 33
e 16 34
e 16 35
e 16 36
e 16 37
e 16 38
e 16 41
e 16 50
e 16 53
e 17 18
e 17 19
e 17 26
e 17 30
e 17 35
e 17 37
e 17 38
e 17 42
e 17 43
e 17 47
e 17 48
e 17 50
e 18 19
e 18 21
e 18 22
e 18 23
e 18 25
e 18 27
e 18 28
e 18 30
e 18 32
e 18 36
e 18 38
e 18 41
e 18 46
e 18 50
e 18 53
e 19 21
e 19 22
e 19 25
e 19 27
e 19 30
e 19 31
e 19 34
e 19 35
e 19 38
e 19 42
e 19 46
e 19 49
e 19 51
e 19 54
e 20 21
e 20 22
e 20 23
e 20 24
e 20 26
e 20 28
e 20 29
e 20 30
e 20 31
e 20 32
e 20 33
e 20 37
e 20 39
e 20 40
e 20 42
e 20 45
e 20 46
e 20 49
e 20 50
e 20 54
e 21 24
e 21 25
e 21 31
e 21 32
e 21 33
e 21 35
e 21 39
e 21 40
e 21 41
e 21 43
e 21 51
e 21 53
e 21 54
e 21 55
e 22 23
e 22 24
e 22 28
e 22 29
e 22 32
e 22 34
e 22 38
e 22 43
e 22 44
e 22 55
e 23 26
e 23 30
e 23 31
e 23 32
e 23 37
e 23 38
e 23 43
e 23 49
e 24 25
e 24 26
e 24 30
e 24 31
e 24 32
e 24 36
e 24 37
e 24 46
e 24 47
e 24 49
e 24 52
e 24 54
e 25 26
e 25 34
e 25 35
e 25 36
e 25 39
e 25 40
e 25 43
e 26 27
e 26 33
e 26 37
e 26 40
e 26 47
e 26 54
e 27 29
e 27 32
e 27 38
e 27 41
e 27 42
e 27 45
e 27 48
e 28 33
e 28 35
e 28 37
e 28 40
e 28 43
e 28 44
e 28 50
e 28 52
e 29 30
e 29 33
e 29 35
e 29 44
e 29 45
e 29 51
e 29 52
e 29 55
e 30 35
e 30 36
e 30 42
e 30 44
e 30 45
e 30 46
e 31 32
e 31 34
e 31 40
e 31 44
e 31 51
e 31 53
e 31 54
e 32 34
e 32 40
e 32 42
e 32 52
e 32 55
e 33 36
e 33 39
e 33 42
e 34 41
e 34 45
e 34 48
e 34 55
e 35 52
e 36 41
e 36 43
e 36 46
e 36 52
e 37 39
e 37 47
e 38 39
e 38 44
e 38 47
e 38 50
e 38 52
e 39 40
e 40 48
e 40 49
e 40 50
e 41 45
e 41 47
e 41 48
e 41 51
e 41 54
e 42 51
e 43 46
e 43 50
e 44 46
e 44 52
e 45 50
e 45 51
e 45 53
e 46 53
e 46 55
e 47 48
e 47 49
e 47 53
e 47 54
e 48 52
e 49 55
e 53 55
